instances/shortest_path/discrete_knapsack_uncertainty/nohadani_7_3.lp
\ Model nohadani_7_3
\ LP format - for model browsing. Use MPS format to capture full model detail.
\ Signature: 0x917f322750627386
Minimize
  75.53806987208503 y[0,1] + 83.60023923410746 y[0,2]
   + 55.60575509783138 y[0,3] + 82.09750300709517 y[0,5]
   + 75.53806987208503 y[1,0] + 41.77319714841084 y[1,2]
   + 39.82461550347976 y[1,3] + 59.53990258641679 y[1,4]
   + 8.602325267042627 y[1,5] + 83.60023923410746 y[2,0]
   + 41.77319714841084 y[2,1] + 28.0178514522438 y[2,3] + 18 y[2,4]
   + 48.38388161361178 y[2,5] + 72.20110802473879 y[2,6]
   + 55.60575509783138 y[3,0] + 39.82461550347976 y[3,1]
   + 28.0178514522438 y[3,2] + 41.04875150354759 y[3,4]
   + 48.41487374764082 y[3,5] + 65.80273550544841 y[3,6]
   + 59.53990258641679 y[4,1] + 18 y[4,2] + 41.04875150354759 y[4,3]
   + 65.73431371817918 y[4,5] + 64.8459713474939 y[4,6]
   + 82.09750300709517 y[5,0] + 8.602325267042627 y[5,1]
   + 48.38388161361178 y[5,2] + 48.41487374764082 y[5,3]
   + 65.73431371817918 y[5,4] + 72.20110802473879 y[6,2]
   + 65.80273550544841 y[6,3] + 64.8459713474939 y[6,4] + x[0,1] + x[0,2]
   + x[0,3] + x[0,5] + x[1,0] + x[1,2] + x[1,3] + x[1,4] + x[1,5] + x[2,0]
   + x[2,1] + x[2,3] + x[2,4] + x[2,5] + x[2,6] + x[3,0] + x[3,1] + x[3,2]
   + x[3,4] + x[3,5] + x[3,6] + x[4,1] + x[4,2] + x[4,3] + x[4,5] + x[4,6]
   + x[5,0] + x[5,1] + x[5,2] + x[5,3] + x[5,4] + x[6,2] + x[6,3] + x[6,4]
   + 7.553806987208503 r[0,1] + 8.360023923410747 r[0,2]
   + 5.560575509783138 r[0,3] + 8.209750300709517 r[0,5]
   + 7.553806987208503 r[1,0] + 4.177319714841085 r[1,2]
   + 3.982461550347976 r[1,3] + 5.953990258641679 r[1,4]
   + 0.8602325267042628 r[1,5] + 8.360023923410747 r[2,0]
   + 4.177319714841085 r[2,1] + 2.80178514522438 r[2,3] + 1.8 r[2,4]
   + 4.838388161361178 r[2,5] + 7.220110802473879 r[2,6]
   + 5.560575509783138 r[3,0] + 3.982461550347976 r[3,1]
   + 2.80178514522438 r[3,2] + 4.104875150354759 r[3,4]
   + 4.841487374764082 r[3,5] + 6.580273550544842 r[3,6]
   + 5.953990258641679 r[4,1] + 1.8 r[4,2] + 4.104875150354759 r[4,3]
   + 6.573431371817918 r[4,5] + 6.48459713474939 r[4,6]
   + 8.209750300709517 r[5,0] + 0.8602325267042628 r[5,1]
   + 4.838388161361178 r[5,2] + 4.841487374764082 r[5,3]
   + 6.573431371817918 r[5,4] + 7.220110802473879 r[6,2]
   + 6.580273550544842 r[6,3] + 6.48459713474939 r[6,4]
Subject To
 flow_cons_inner_nodes[0]: - y[0,1] - y[0,2] - y[0,3] - y[0,5] + y[1,0]
   + y[2,0] + y[3,0] + y[5,0] = 0
 flow_cons_inner_nodes[1]: y[0,1] - y[1,0] - y[1,2] - y[1,3] - y[1,4]
   - y[1,5] + y[2,1] + y[3,1] + y[4,1] + y[5,1] = 0
 flow_cons_inner_nodes[2]: y[0,2] + y[1,2] - y[2,0] - y[2,1] - y[2,3]
   - y[2,4] - y[2,5] - y[2,6] + y[3,2] + y[4,2] + y[5,2] + y[6,2] = 0
 flow_cons_inner_nodes[3]: y[0,3] + y[1,3] + y[2,3] - y[3,0] - y[3,1]
   - y[3,2] - y[3,4] - y[3,5] - y[3,6] + y[4,3] + y[5,3] + y[6,3] = 0
 flow_cons_inner_nodes[4]: y[1,4] + y[2,4] + y[3,4] - y[4,1] - y[4,2]
   - y[4,3] - y[4,5] - y[4,6] + y[5,4] + y[6,4] = 0
 flow_cons_source: - y[0,5] - y[1,5] - y[2,5] - y[3,5] - y[4,5] + y[5,0]
   + y[5,1] + y[5,2] + y[5,3] + y[5,4] = 1
 flow_cons_target: y[2,6] + y[3,6] + y[4,6] - y[6,2] - y[6,3] - y[6,4] = 1
 primal_lower: 1.327282043396738 x[0,1] + 3.788568959348739 x[0,2]
   + 3.462818972186508 x[0,3] + 1.124153752145134 x[0,5]
   + 0.1662531133134321 x[1,0] + 1.364909170050675 x[1,2]
   + 1.819683178071799 x[1,3] + 3.786486887142568 x[1,4]
   + 1.003378034861798 x[1,5] + 0.4369932484805653 x[2,0]
   + 3.06817386430635 x[2,1] + 2.028109927047975 x[2,3]
   + 2.563966098134586 x[2,4] + 4.158076389129632 x[2,5]
   + 3.424144453900053 x[2,6] + 3.916059893494239 x[3,0]
   + 3.312412479749437 x[3,1] + 1.472866599140654 x[3,2]
   + 0.8111247499421711 x[3,4] + 4.545236595489869 x[3,5]
   + 1.102213404270297 x[3,6] + 0.485577762177314 x[4,1]
   + 0.9041731469036 x[4,2] + 0.0571556053467112 x[4,3]
   + 3.773999399881875 x[4,5] + 0.0668001272126763 x[4,6]
   + 4.359966249059473 x[5,0] + 1.657100820364092 x[5,1]
   + 2.426745847067552 x[5,2] + 0.4928372226968382 x[5,3]
   + 2.950960428270527 x[5,4] + 1.451995130679579 x[6,2]
   + 3.233782024109643 x[6,3] + 2.573040978211303 x[6,4] + 99 u[0,1]
   + 52 u[0,2] + 2 u[0,3] + 51 u[0,5] + 72 u[1,0] + 13 u[1,2] + 13 u[1,3]
   + 95 u[1,4] + 45 u[1,5] + 50 u[2,0] + 75 u[2,1] + 47 u[2,3] + 8 u[2,4]
   + 84 u[2,5] + 64 u[2,6] + 44 u[3,0] + 13 u[3,1] + 40 u[3,2] + 61 u[3,4]
   + 30 u[3,5] + 77 u[3,6] + 67 u[4,1] + 24 u[4,2] + 50 u[4,3] + 72 u[4,5]
   + 80 u[4,6] + 98 u[5,0] + 23 u[5,1] + 25 u[5,2] + 3 u[5,3] + 97 u[5,4]
   + 75 u[6,2] + 19 u[6,3] + 93 u[6,4] <= 160
 mccormick1[0,1]: - u[0,1] + r[0,1] <= 0
 mccormick1[0,2]: - u[0,2] + r[0,2] <= 0
 mccormick1[0,3]: - u[0,3] + r[0,3] <= 0
 mccormick1[0,5]: - u[0,5] + r[0,5] <= 0
 mccormick1[1,0]: - u[1,0] + r[1,0] <= 0
 mccormick1[1,2]: - u[1,2] + r[1,2] <= 0
 mccormick1[1,3]: - u[1,3] + r[1,3] <= 0
 mccormick1[1,4]: - u[1,4] + r[1,4] <= 0
 mccormick1[1,5]: - u[1,5] + r[1,5] <= 0
 mccormick1[2,0]: - u[2,0] + r[2,0] <= 0
 mccormick1[2,1]: - u[2,1] + r[2,1] <= 0
 mccormick1[2,3]: - u[2,3] + r[2,3] <= 0
 mccormick1[2,4]: - u[2,4] + r[2,4] <= 0
 mccormick1[2,5]: - u[2,5] + r[2,5] <= 0
 mccormick1[2,6]: - u[2,6] + r[2,6] <= 0
 mccormick1[3,0]: - u[3,0] + r[3,0] <= 0
 mccormick1[3,1]: - u[3,1] + r[3,1] <= 0
 mccormick1[3,2]: - u[3,2] + r[3,2] <= 0
 mccormick1[3,4]: - u[3,4] + r[3,4] <= 0
 mccormick1[3,5]: - u[3,5] + r[3,5] <= 0
 mccormick1[3,6]: - u[3,6] + r[3,6] <= 0
 mccormick1[4,1]: - u[4,1] + r[4,1] <= 0
 mccormick1[4,2]: - u[4,2] + r[4,2] <= 0
 mccormick1[4,3]: - u[4,3] + r[4,3] <= 0
 mccormick1[4,5]: - u[4,5] + r[4,5] <= 0
 mccormick1[4,6]: - u[4,6] + r[4,6] <= 0
 mccormick1[5,0]: - u[5,0] + r[5,0] <= 0
 mccormick1[5,1]: - u[5,1] + r[5,1] <= 0
 mccormick1[5,2]: - u[5,2] + r[5,2] <= 0
 mccormick1[5,3]: - u[5,3] + r[5,3] <= 0
 mccormick1[5,4]: - u[5,4] + r[5,4] <= 0
 mccormick1[6,2]: - u[6,2] + r[6,2] <= 0
 mccormick1[6,3]: - u[6,3] + r[6,3] <= 0
 mccormick1[6,4]: - u[6,4] + r[6,4] <= 0
 mccormick2[0,1]: - y[0,1] + r[0,1] <= 0
 mccormick2[0,2]: - y[0,2] + r[0,2] <= 0
 mccormick2[0,3]: - y[0,3] + r[0,3] <= 0
 mccormick2[0,5]: - y[0,5] + r[0,5] <= 0
 mccormick2[1,0]: - y[1,0] + r[1,0] <= 0
 mccormick2[1,2]: - y[1,2] + r[1,2] <= 0
 mccormick2[1,3]: - y[1,3] + r[1,3] <= 0
 mccormick2[1,4]: - y[1,4] + r[1,4] <= 0
 mccormick2[1,5]: - y[1,5] + r[1,5] <= 0
 mccormick2[2,0]: - y[2,0] + r[2,0] <= 0
 mccormick2[2,1]: - y[2,1] + r[2,1] <= 0
 mccormick2[2,3]: - y[2,3] + r[2,3] <= 0
 mccormick2[2,4]: - y[2,4] + r[2,4] <= 0
 mccormick2[2,5]: - y[2,5] + r[2,5] <= 0
 mccormick2[2,6]: - y[2,6] + r[2,6] <= 0
 mccormick2[3,0]: - y[3,0] + r[3,0] <= 0
 mccormick2[3,1]: - y[3,1] + r[3,1] <= 0
 mccormick2[3,2]: - y[3,2] + r[3,2] <= 0
 mccormick2[3,4]: - y[3,4] + r[3,4] <= 0
 mccormick2[3,5]: - y[3,5] + r[3,5] <= 0
 mccormick2[3,6]: - y[3,6] + r[3,6] <= 0
 mccormick2[4,1]: - y[4,1] + r[4,1] <= 0
 mccormick2[4,2]: - y[4,2] + r[4,2] <= 0
 mccormick2[4,3]: - y[4,3] + r[4,3] <= 0
 mccormick2[4,5]: - y[4,5] + r[4,5] <= 0
 mccormick2[4,6]: - y[4,6] + r[4,6] <= 0
 mccormick2[5,0]: - y[5,0] + r[5,0] <= 0
 mccormick2[5,1]: - y[5,1] + r[5,1] <= 0
 mccormick2[5,2]: - y[5,2] + r[5,2] <= 0
 mccormick2[5,3]: - y[5,3] + r[5,3] <= 0
 mccormick2[5,4]: - y[5,4] + r[5,4] <= 0
 mccormick2[6,2]: - y[6,2] + r[6,2] <= 0
 mccormick2[6,3]: - y[6,3] + r[6,3] <= 0
 mccormick2[6,4]: - y[6,4] + r[6,4] <= 0
 mccormick3[0,1]: - y[0,1] - u[0,1] + r[0,1] >= -1
 mccormick3[0,2]: - y[0,2] - u[0,2] + r[0,2] >= -1
 mccormick3[0,3]: - y[0,3] - u[0,3] + r[0,3] >= -1
 mccormick3[0,5]: - y[0,5] - u[0,5] + r[0,5] >= -1
 mccormick3[1,0]: - y[1,0] - u[1,0] + r[1,0] >= -1
 mccormick3[1,2]: - y[1,2] - u[1,2] + r[1,2] >= -1
 mccormick3[1,3]: - y[1,3] - u[1,3] + r[1,3] >= -1
 mccormick3[1,4]: - y[1,4] - u[1,4] + r[1,4] >= -1
 mccormick3[1,5]: - y[1,5] - u[1,5] + r[1,5] >= -1
 mccormick3[2,0]: - y[2,0] - u[2,0] + r[2,0] >= -1
 mccormick3[2,1]: - y[2,1] - u[2,1] + r[2,1] >= -1
 mccormick3[2,3]: - y[2,3] - u[2,3] + r[2,3] >= -1
 mccormick3[2,4]: - y[2,4] - u[2,4] + r[2,4] >= -1
 mccormick3[2,5]: - y[2,5] - u[2,5] + r[2,5] >= -1
 mccormick3[2,6]: - y[2,6] - u[2,6] + r[2,6] >= -1
 mccormick3[3,0]: - y[3,0] - u[3,0] + r[3,0] >= -1
 mccormick3[3,1]: - y[3,1] - u[3,1] + r[3,1] >= -1
 mccormick3[3,2]: - y[3,2] - u[3,2] + r[3,2] >= -1
 mccormick3[3,4]: - y[3,4] - u[3,4] + r[3,4] >= -1
 mccormick3[3,5]: - y[3,5] - u[3,5] + r[3,5] >= -1
 mccormick3[3,6]: - y[3,6] - u[3,6] + r[3,6] >= -1
 mccormick3[4,1]: - y[4,1] - u[4,1] + r[4,1] >= -1
 mccormick3[4,2]: - y[4,2] - u[4,2] + r[4,2] >= -1
 mccormick3[4,3]: - y[4,3] - u[4,3] + r[4,3] >= -1
 mccormick3[4,5]: - y[4,5] - u[4,5] + r[4,5] >= -1
 mccormick3[4,6]: - y[4,6] - u[4,6] + r[4,6] >= -1
 mccormick3[5,0]: - y[5,0] - u[5,0] + r[5,0] >= -1
 mccormick3[5,1]: - y[5,1] - u[5,1] + r[5,1] >= -1
 mccormick3[5,2]: - y[5,2] - u[5,2] + r[5,2] >= -1
 mccormick3[5,3]: - y[5,3] - u[5,3] + r[5,3] >= -1
 mccormick3[5,4]: - y[5,4] - u[5,4] + r[5,4] >= -1
 mccormick3[6,2]: - y[6,2] - u[6,2] + r[6,2] >= -1
 mccormick3[6,3]: - y[6,3] - u[6,3] + r[6,3] >= -1
 mccormick3[6,4]: - y[6,4] - u[6,4] + r[6,4] >= -1
Bounds
Binaries
 y[0,1] y[0,2] y[0,3] y[0,5] y[1,0] y[1,2] y[1,3] y[1,4] y[1,5] y[2,0]
 y[2,1] y[2,3] y[2,4] y[2,5] y[2,6] y[3,0] y[3,1] y[3,2] y[3,4] y[3,5]
 y[3,6] y[4,1] y[4,2] y[4,3] y[4,5] y[4,6] y[5,0] y[5,1] y[5,2] y[5,3]
 y[5,4] y[6,2] y[6,3] y[6,4] x[0,1] x[0,2] x[0,3] x[0,5] x[1,0] x[1,2]
 x[1,3] x[1,4] x[1,5] x[2,0] x[2,1] x[2,3] x[2,4] x[2,5] x[2,6] x[3,0]
 x[3,1] x[3,2] x[3,4] x[3,5] x[3,6] x[4,1] x[4,2] x[4,3] x[4,5] x[4,6]
 x[5,0] x[5,1] x[5,2] x[5,3] x[5,4] x[6,2] x[6,3] x[6,4] u[0,1] u[0,2]
 u[0,3] u[0,5] u[1,0] u[1,2] u[1,3] u[1,4] u[1,5] u[2,0] u[2,1] u[2,3]
 u[2,4] u[2,5] u[2,6] u[3,0] u[3,1] u[3,2] u[3,4] u[3,5] u[3,6] u[4,1]
 u[4,2] u[4,3] u[4,5] u[4,6] u[5,0] u[5,1] u[5,2] u[5,3] u[5,4] u[6,2]
 u[6,3] u[6,4] r[0,1] r[0,2] r[0,3] r[0,5] r[1,0] r[1,2] r[1,3] r[1,4]
 r[1,5] r[2,0] r[2,1] r[2,3] r[2,4] r[2,5] r[2,6] r[3,0] r[3,1] r[3,2]
 r[3,4] r[3,5] r[3,6] r[4,1] r[4,2] r[4,3] r[4,5] r[4,6] r[5,0] r[5,1]
 r[5,2] r[5,3] r[5,4] r[6,2] r[6,3] r[6,4]
End
