instances/shortest_path/discrete_knapsack_uncertainty/nohadani_7_3.kp
78629
160

[1.3272820433967383 3.788568959348739 3.462818972186508 1.1241537521451344 0.1662531133134321 1.3649091700506755 1.8196831780717988 3.7864868871425683 1.0033780348617976 0.4369932484805653 3.06817386430635 2.0281099270479745 2.5639660981345855 4.158076389129632 3.4241444539000527 3.916059893494239 3.3124124797494368 1.472866599140654 0.8111247499421711 4.545236595489869 1.102213404270297 0.485577762177314 0.9041731469036 0.057155605346711165 3.773999399881875 0.06680012721267628 4.359966249059473 1.6571008203640916 2.426745847067552 0.4928372226968382 2.9509604282705273 1.451995130679579 3.233782024109643 2.5730409782113033]

[99 52 2 51 72 13 13 95 45 50 75 47 8 84 64 44 13 40 61 30 77 67 24 50 72 80 98 23 25 3 97 75 19 93]
